<?xml version = "1.0" encoding="UTF-8" standalone="yes"?>
<CPLEXSolution version="1.2">
 <header
   problemName="IloCplex"
   solutionName="p0"
   solutionIndex="-1"
   objectiveValue="-4987593446"
   solutionTypeValue="3"
   solutionTypeString="primal"
   solutionStatusValue="127"
   solutionStatusString="integer feasible solution"
   solutionMethodString="mip"
   primalFeasible="0"
   dualFeasible="0"
   writeLevel="3"/>
 <quality
   epInt="1.0000000000000001e-05"
   epRHS="9.9999999999999995e-07"
   maxIntInfeas="0"
   maxPrimalInfeas="0"
   maxX="1"
   maxSlack="1"/>
 <variables>
  <variable name="w1_0" index="15" value="1"/>
  <variable name="w1_3" index="18" value="1"/>
  <variable name="w1_5" index="20" value="1"/>
  <variable name="w1_12" index="27" value="1"/>
  <variable name="w1_13" index="28" value="1"/>
  <variable name="w2_0" index="30" value="1"/>
  <variable name="w2_3" index="33" value="1"/>
  <variable name="w2_5" index="35" value="1"/>
  <variable name="w2_12" index="42" value="1"/>
  <variable name="w2_13" index="43" value="1"/>
  <variable name="w3_0" index="45" value="1"/>
  <variable name="w3_3" index="48" value="1"/>
  <variable name="w3_5" index="50" value="1"/>
  <variable name="w3_12" index="57" value="1"/>
  <variable name="w3_13" index="58" value="1"/>
  <variable name="w4_0" index="60" value="1"/>
  <variable name="w4_3" index="63" value="1"/>
  <variable name="w4_5" index="65" value="1"/>
  <variable name="w4_12" index="72" value="1"/>
  <variable name="w4_13" index="73" value="1"/>
  <variable name="w5_0" index="75" value="1"/>
  <variable name="w5_3" index="78" value="1"/>
  <variable name="w5_5" index="80" value="1"/>
  <variable name="w5_12" index="87" value="1"/>
  <variable name="w5_13" index="88" value="1"/>
  <variable name="w10_0" index="150" value="1"/>
  <variable name="w10_3" index="153" value="1"/>
  <variable name="w10_5" index="155" value="1"/>
  <variable name="w10_12" index="162" value="1"/>
  <variable name="w10_13" index="163" value="1"/>
  <variable name="w18_0" index="270" value="1"/>
  <variable name="w18_3" index="273" value="1"/>
  <variable name="w18_5" index="275" value="1"/>
  <variable name="w18_12" index="282" value="1"/>
  <variable name="w18_13" index="283" value="1"/>
  <variable name="w19_0" index="285" value="1"/>
  <variable name="w19_3" index="288" value="1"/>
  <variable name="w19_5" index="290" value="1"/>
  <variable name="w19_12" index="297" value="1"/>
  <variable name="w19_13" index="298" value="1"/>
  <variable name="k1" index="301" value="1"/>
  <variable name="k2" index="302" value="1"/>
  <variable name="k3" index="303" value="1"/>
  <variable name="k4" index="304" value="1"/>
  <variable name="k5" index="305" value="1"/>
  <variable name="k10" index="310" value="1"/>
  <variable name="k18" index="318" value="1"/>
  <variable name="k19" index="319" value="1"/>
  <variable name="x0_85" index="405" value="1"/>
  <variable name="x1_34" index="504" value="1"/>
  <variable name="x2_139" index="759" value="1"/>
  <variable name="x3_147" index="917" value="1"/>
  <variable name="x4_109" index="1029" value="1"/>
  <variable name="x5_135" index="1205" value="1"/>
  <variable name="x6_116" index="1336" value="1"/>
  <variable name="x7_149" index="1519" value="1"/>
  <variable name="x8_128" index="1648" value="1"/>
  <variable name="x9_67" index="1737" value="1"/>
  <variable name="x10_68" index="1888" value="1"/>
  <variable name="x11_93" index="2063" value="1"/>
  <variable name="x12_71" index="2191" value="1"/>
  <variable name="x13_5" index="2275" value="1"/>
  <variable name="x14_61" index="2481" value="1"/>
  <variable name="x15_132" index="2702" value="1"/>
  <variable name="x16_49" index="2769" value="1"/>
  <variable name="x17_8" index="2878" value="1"/>
  <variable name="x18_65" index="3085" value="1"/>
  <variable name="x19_43" index="3213" value="1"/>
  <variable name="x20_83" index="3403" value="1"/>
  <variable name="x21_129" index="3599" value="1"/>
  <variable name="x22_10" index="3630" value="1"/>
  <variable name="x23_4" index="3774" value="1"/>
  <variable name="x24_38" index="3958" value="1"/>
  <variable name="x25_69" index="4139" value="1"/>
  <variable name="x26_54" index="4274" value="1"/>
  <variable name="x27_31" index="4401" value="1"/>
  <variable name="x28_133" index="4653" value="1"/>
  <variable name="x29_23" index="4693" value="1"/>
  <variable name="x30_64" index="4884" value="1"/>
  <variable name="x31_148" index="5118" value="1"/>
  <variable name="x32_35" index="5155" value="1"/>
  <variable name="x33_143" index="5413" value="1"/>
  <variable name="x34_0" index="5420" value="1"/>
  <variable name="x35_7" index="5577" value="1"/>
  <variable name="x36_1" index="5721" value="1"/>
  <variable name="x37_81" index="5951" value="1"/>
  <variable name="x38_52" index="6072" value="1"/>
  <variable name="x39_91" index="6261" value="1"/>
  <variable name="x40_32" index="6352" value="1"/>
  <variable name="x41_55" index="6525" value="1"/>
  <variable name="x42_144" index="6764" value="1"/>
  <variable name="x43_84" index="6854" value="1"/>
  <variable name="x44_80" index="7000" value="1"/>
  <variable name="x45_141" index="7211" value="1"/>
  <variable name="x46_56" index="7276" value="1"/>
  <variable name="x47_131" index="7501" value="1"/>
  <variable name="x48_66" index="7586" value="1"/>
  <variable name="x49_137" index="7807" value="1"/>
  <variable name="x50_21" index="7841" value="1"/>
  <variable name="x51_50" index="8020" value="1"/>
  <variable name="x52_17" index="8137" value="1"/>
  <variable name="x53_115" index="8385" value="1"/>
  <variable name="x54_134" index="8554" value="1"/>
  <variable name="x55_117" index="8687" value="1"/>
  <variable name="x56_40" index="8760" value="1"/>
  <variable name="x57_28" index="8898" value="1"/>
  <variable name="x58_57" index="9077" value="1"/>
  <variable name="x59_118" index="9288" value="1"/>
  <variable name="x60_51" index="9371" value="1"/>
  <variable name="x61_95" index="9565" value="1"/>
  <variable name="x62_44" index="9664" value="1"/>
  <variable name="x63_39" index="9809" value="1"/>
  <variable name="x64_26" index="9946" value="1"/>
  <variable name="x65_15" index="10085" value="1"/>
  <variable name="x66_3" index="10223" value="1"/>
  <variable name="x67_36" index="10406" value="1"/>
  <variable name="x68_70" index="10590" value="1"/>
  <variable name="x69_14" index="10684" value="1"/>
  <variable name="x70_60" index="10880" value="1"/>
  <variable name="x71_123" index="11093" value="1"/>
  <variable name="x72_88" index="11208" value="1"/>
  <variable name="x73_101" index="11371" value="1"/>
  <variable name="x74_136" index="11556" value="1"/>
  <variable name="x75_103" index="11673" value="1"/>
  <variable name="x76_111" index="11831" value="1"/>
  <variable name="x77_119" index="11989" value="1"/>
  <variable name="x78_100" index="12120" value="1"/>
  <variable name="x79_59" index="12229" value="1"/>
  <variable name="x80_86" index="12406" value="1"/>
  <variable name="x81_114" index="12584" value="1"/>
  <variable name="x82_37" index="12657" value="1"/>
  <variable name="x83_62" index="12832" value="1"/>
  <variable name="x84_97" index="13017" value="1"/>
  <variable name="x85_94" index="13164" value="1"/>
  <variable name="x86_130" index="13350" value="1"/>
  <variable name="x87_110" index="13480" value="1"/>
  <variable name="x88_72" index="13592" value="1"/>
  <variable name="x89_76" index="13746" value="1"/>
  <variable name="x90_98" index="13918" value="1"/>
  <variable name="x91_73" index="14043" value="1"/>
  <variable name="x92_53" index="14173" value="1"/>
  <variable name="x93_120" index="14390" value="1"/>
  <variable name="x94_9" index="14429" value="1"/>
  <variable name="x95_126" index="14696" value="1"/>
  <variable name="x96_105" index="14825" value="1"/>
  <variable name="x97_138" index="15008" value="1"/>
  <variable name="x98_82" index="15102" value="1"/>
  <variable name="x99_90" index="15260" value="1"/>
  <variable name="x100_122" index="15442" value="1"/>
  <variable name="x101_41" index="15511" value="1"/>
  <variable name="x102_78" index="15698" value="1"/>
  <variable name="x103_108" index="15878" value="1"/>
  <variable name="x104_75" index="15995" value="1"/>
  <variable name="x105_11" index="16081" value="1"/>
  <variable name="x106_87" index="16307" value="1"/>
  <variable name="x107_2" index="16372" value="1"/>
  <variable name="x108_13" index="16533" value="1"/>
  <variable name="x109_92" index="16762" value="1"/>
  <variable name="x110_112" index="16932" value="1"/>
  <variable name="x111_79" index="17049" value="1"/>
  <variable name="x112_89" index="17209" value="1"/>
  <variable name="x113_107" index="17377" value="1"/>
  <variable name="x114_104" index="17524" value="1"/>
  <variable name="x115_113" index="17683" value="1"/>
  <variable name="x116_106" index="17826" value="1"/>
  <variable name="x117_58" index="17928" value="1"/>
  <variable name="x118_145" index="18165" value="1"/>
  <variable name="x119_6" index="18176" value="1"/>
  <variable name="x120_33" index="18353" value="1"/>
  <variable name="x121_96" index="18566" value="1"/>
  <variable name="x122_99" index="18719" value="1"/>
  <variable name="x123_45" index="18815" value="1"/>
  <variable name="x124_121" index="19041" value="1"/>
  <variable name="x125_77" index="19147" value="1"/>
  <variable name="x126_140" index="19360" value="1"/>
  <variable name="x127_24" index="19394" value="1"/>
  <variable name="x128_27" index="19547" value="1"/>
  <variable name="x129_127" index="19797" value="1"/>
  <variable name="x130_102" index="19922" value="1"/>
  <variable name="x131_124" index="20094" value="1"/>
  <variable name="x132_29" index="20149" value="1"/>
  <variable name="x133_47" index="20317" value="1"/>
  <variable name="x134_42" index="20462" value="1"/>
  <variable name="x135_22" index="20592" value="1"/>
  <variable name="x136_46" index="20766" value="1"/>
  <variable name="x137_30" index="20900" value="1"/>
  <variable name="x138_18" index="21038" value="1"/>
  <variable name="x139_16" index="21186" value="1"/>
  <variable name="x140_63" index="21383" value="1"/>
  <variable name="x141_146" index="21616" value="1"/>
  <variable name="x142_20" index="21640" value="1"/>
  <variable name="x143_19" index="21789" value="1"/>
  <variable name="x144_74" index="21994" value="1"/>
  <variable name="x145_142" index="22212" value="1"/>
  <variable name="x146_125" index="22345" value="1"/>
  <variable name="x147_48" index="22418" value="1"/>
  <variable name="x148_25" index="22545" value="1"/>
  <variable name="x149_12" index="22682" value="1"/>
  <variable name="u0" index="22820" value="1"/>
  <variable name="u3" index="22823" value="1"/>
  <variable name="u5" index="22825" value="1"/>
  <variable name="u12" index="22832" value="1"/>
  <variable name="u13" index="22833" value="1"/>
 </variables>
</CPLEXSolution>
